C8H8
1
9.88 0 0 
0 15 0
0 0 15
C H C H C H C H C H C H C H C H
1 1 1 1 1 1 1 1 1 1 1 1 1 1 1 1
Cartesian
-0.5892731038 0.3262391909 0.0
-0.5866101958 1.4126530287 0.0
0.5916281105 -0.3261693897 0.0
0.5889652025 -1.4125832275 0.0
1.8807268962 0.3262391909 0.0
1.8833898042000001 1.4126530287 0.0
3.0616281105 -0.3261693897 0.0
3.0589652025 -1.4125832275 0.0
4.3507268962 0.3262391909 0.0
4.353389804200001 1.4126530287 0.0
5.531628110500001 -0.3261693897 0.0
5.5289652025 -1.4125832275 0.0
6.8207268962 0.3262391909 0.0
6.8233898042000005 1.4126530287 0.0
8.0016281105 -0.3261693897 0.0
7.9989652025 -1.4125832275 0.0
